JulietBench/Juliet_Based_Patch_Bench/linux/CWE-189-Numeric-Errors/CVE_2011_2496_982134ba62618c2d69fbbbd166d0a11ee3b7e3d8/solvervma_to_resize_Snippet.smt2
; benchmark generated from python API
(set-info :status unknown)
(declare-fun R () (_ BitVec 32))
(declare-fun rdi () (_ BitVec 64))
(declare-fun rcx () (_ BitVec 64))
(declare-fun rsi () (_ BitVec 64))
(declare-fun rdx () (_ BitVec 64))
(declare-fun r8 () (_ BitVec 64))
(declare-fun r9 () (_ BitVec 64))
(assert
 (let (($x1784 (= (_ bv4294967295 32) R)))
 (let (($x38 (bvugt rcx rdi)))
 (let (($x2180 (and $x38 $x1784)))
 (let (($x3927 (= (_ bv1 32) R)))
 (let (($x15 (bvule rcx rdi)))
 (let (($x115 (bvule rdx rsi)))
 (let (($x4509 (and $x115 $x15 $x3927)))
 (let (($x123 (bvugt rdx rsi)))
 (let ((?x62 ((_ extract 23 0) r8)))
 (let ((?x72 (bvand ?x62 (_ bv263168 24))))
 (let (($x109 (and (distinct (_ bv0 24) ?x72) true)))
 (let (($x4503 (and $x109 $x123 $x15 $x1784)))
 (let (($x63 (= (_ bv0 24) ?x72)))
 (let ((?x182 (bvlshr rdx (_ bv13 64))))
 (let ((?x170 (bvmul (_ bv18446744073709551615 64) rcx)))
 (let ((?x167 (bvadd rdi ?x170)))
 (let ((?x176 ((_ extract 63 13) ?x167)))
 (let ((?x160 (concat (_ bv0 13) ?x176)))
 (let ((?x180 (bvadd ?x160 r9)))
 (let ((?x178 (bvadd ?x180 ?x182)))
 (let (($x177 (bvule ?x180 ?x178)))
 (let (($x4502 (and $x177 $x63 $x123 $x15 $x3927)))
 (let (($x4495 (= (_ bv4294967274 32) R)))
 (let (($x196 (bvugt ?x180 ?x178)))
 (let (($x4496 (and $x196 $x63 $x123 $x15 $x4495)))
 (let (($x4510 (or $x4496 $x4502 $x4503 $x4509 $x2180)))
 (let (($x3936 (not $x4510)))
 (let (($x4200 (and $x63 $x15 $x3927)))
 (let (($x3935 (and $x115 $x109 $x15 $x3927)))
 (let (($x1785 (and $x123 $x109 $x15 $x1784)))
 (let (($x4498 (or $x1785 $x3935 $x4200 $x2180)))
 (let (($x3954 (not $x4498)))
 (let (($x3945 (and $x3954 $x3936)))
 (let (($x3952 (and $x4498 $x4510)))
 (let (($x3946 (or $x3952 $x3945)))
 (not $x3946)))))))))))))))))))))))))))))))))))))
(check-sat)
